language ESSENCE' 1.0
$ minion Nodes: 3
$ minion TotalTime: 0.000714
$ Savile Row TotalTime: 0.421
letting pain_SetOccurrence be [[[true, false;int(6,8)], 
[false, true;int(6,8)];int(3..4)], 
[[false, true;int(6,8)], 
[false, true;int(6,8)];int(3..4)];int(1..2)]
